%%% static parameters %%%
timespan = 1;
Clients_N = [4000];
Demand_W = [15];
Lt0 = [4];
Lt1 = [4];
SS_ = [0.85];
DS_D = [20];
K = [200];
MA = [500];
HC = [0.05];
%%% dynamic parameters %%%
lost_ratio_sales_ret_th = 0.00019727153780680007;
lost_ratio_sales_ret_w = 89;
lost_ratio_sales_dis_th = 4.594830162460273e-05;
lost_ratio_sales_dis_w = 25;
lost_ratio_sales_fac_th = 0.0009668912435368649;
lost_ratio_sales_fac_w = 12;
stock_customer_MA_mean_relative_th = 0.49339219493463515;
stock_customer_MA_mean_relative_w = 2;
stock_distributor_MA_mean_relative_th = 0.07264967830061309;
stock_distributor_MA_mean_relative_w = 21;
stock_retailer_MA_mean_relative_th = 0.8981862335932801;
stock_retailer_MA_mean_relative_w = 52;
stock_factory_MA_mean_relative_th = 0.359720361988497;
stock_factory_MA_mean_relative_w = 20;
